100
[21,22,23,24,25,26,27,28,29,30,31,32,33,34,35,36,37,38,39,40,41,42,43,44,45,46,47,48,49,50,51,52,53,54,55,56,57,58,59,60,61,62,63,64,65,67,68,69,70,71,72,73,74,75,76,77,78,79,80]
[7,3,5,1,3,3,4,3,3,2,3,3,6,4,1,6,3,5,1,4,2,6,2,4,2,4,5,2,1,8,1,4,3,4,2,4,4,1,3,5,3,1,3,5,4,5,2,1,2,3,4,1,3,3,5,4,3,5,6]
